ORG = {A,B,C,D};
T = 20;
passengers = 2;
compatibility = [|true, false, true, true
                 |false, true, false, false
                 |true, false, true, false
                 |true, false, false, true|];
                 
%steps=5